p cnf 100 240
-86 2 -93 0
-15 -2 -60 0
94 75 -25 0
69 43 26 0
-27 1 34 0
27 75 88 0
45 50 44 0
15 -2 82 0
52 -28 29 0
74 -87 -36 0
-65 -24 -39 0
-31 34 60 0
78 39 -77 0
-30 -70 96 0
-30 18 99 0
34 47 48 0
68 -83 -97 0
-66 -18 8 0
14 88 39 0
24 -81 -45 0
11 93 1 0
10 43 98 0
83 -4 -6 0
85 99 20 0
22 33 -17 0
-63 -98 4 0
-72 74 -35 0
-62 -50 76 0
-6 91 65 0
-91 -41 -19 0
-14 72 -26 0
-19 -27 -44 0
-17 25 -90 0
-73 -89 -82 0
80 62 -78 0
58 -12 66 0
77 -67 -85 0
65 -45 -23 0
25 29 97 0
-21 -40 68 0
-77 29 7 0
-98 -71 -84 0
57 -46 96 0
9 14 62 0
-39 61 54 0
17 -51 -6 0
95 -50 -66 0
-4 98 14 0
100 -38 3 0
-20 -42 69 0
27 -75 8 0
70 73 -23 0
-96 -50 -66 0
1 -11 80 0
-26 3 17 0
-70 83 35 0
99 -87 14 0
58 7 -15 0
-80 -2 77 0
-5 63 -6 0
99 81 -51 0
57 -66 -65 0
-45 -67 58 0
-52 35 -5 0
-7 45 -99 0
-36 -26 2 0
-99 74 88 0
3 16 17 0
6 95 -2 0
29 -67 82 0
10 -31 -37 0
83 -72 -65 0
-52 5 -34 0
-53 -61 -52 0
-57 -99 -73 0
49 94 32 0
-75 100 -20 0
48 51 -60 0
-88 -12 -75 0
88 -72 56 0
33 -81 -53 0
-21 83 -12 0
59 23 96 0
5 -67 96 0
83 64 77 0
-16 51 9 0
39 -4 62 0
-69 -38 -29 0
24 -77 -43 0
-30 -11 -44 0
-32 -95 -1 0
-62 82 -53 0
23 81 -55 0
-38 95 48 0
87 -8 36 0
-92 -89 -31 0
49 -33 91 0
-99 -73 -31 0
84 18 -46 0
-98 47 -52 0
23 -78 60 0
59 -66 35 0
-57 74 46 0
-81 70 -95 0
-60 -76 56 0
-8 -91 39 0
-75 47 11 0
-70 -35 -11 0
76 -31 69 0
-1 -3 89 0
81 -71 61 0
7 14 -99 0
81 -5 -16 0
-90 14 3 0
10 78 49 0
-42 97 -1 0
-28 75 -34 0
-78 -99 80 0
60 36 -43 0
22 -95 -10 0
47 -26 40 0
68 -75 -7 0
97 71 31 0
-33 68 16 0
78 -23 9 0
-72 -66 41 0
-11 -30 -29 0
-27 96 -42 0
35 -54 -80 0
-11 -77 -65 0
8 33 88 0
-29 -7 83 0
-12 5 -68 0
50 -52 38 0
-16 -99 45 0
-43 -3 -98 0
-98 -79 -73 0
-37 -38 -22 0
-32 80 -92 0
-24 -51 90 0
-27 -85 2 0
-30 14 -44 0
60 46 -100 0
-17 16 -96 0
51 14 19 0
3 -39 -88 0
4 26 70 0
-57 70 -59 0
-31 -53 -50 0
21 85 96 0
32 -27 -6 0
-87 82 -12 0
9 75 72 0
60 -93 76 0
86 -53 -47 0
65 -79 -21 0
-37 -17 74 0
-75 -92 -85 0
-68 -10 2 0
-45 -58 -49 0
53 -79 94 0
8 38 15 0
41 -30 -7 0
62 -99 65 0
95 -62 -25 0
54 97 -1 0
35 74 -65 0
-96 83 -52 0
17 95 28 0
-55 59 77 0
48 -8 76 0
-45 -13 -55 0
43 89 -61 0
-52 -71 -51 0
-52 -39 33 0
-86 7 -5 0
-33 76 13 0
5 42 49 0
94 -26 -14 0
-29 -30 24 0
7 47 -29 0
27 58 50 0
72 11 -86 0
65 -17 -88 0
-20 57 68 0
-93 27 97 0
57 -37 78 0
11 35 -88 0
3 -37 69 0
7 -32 22 0
14 -87 -83 0
3 -69 -58 0
64 -93 36 0
71 39 -22 0
73 -94 43 0
56 -31 -64 0
25 1 -97 0
26 -62 -68 0
-97 -9 -72 0
-65 56 53 0
x -1 3 4 -5 9 -11 15 17 19 20 21 -22 24 -25 27 31 -32 -33 36 38 -39 42 45 47 49 50 -52 53 54 55 58 -59 68 70 -71 -72 73 74 75 -77 78 -79 -81 82 -83 -84 -86 89 -90 -91 -92 -93 -99 0
x -3 5 8 -9 10 -14 -15 16 17 -18 -20 -21 -22 -23 -24 -27 -29 30 -31 -33 -36 39 -40 42 -43 46 47 -51 55 -56 -59 61 -63 64 -69 70 -71 -73 74 75 76 -77 78 -83 -84 85 -86 88 89 -91 96 98 100 0
x 4 8 -9 -16 -18 19 -20 22 24 -25 -28 -29 -31 32 33 34 -37 38 40 -42 45 46 -48 -49 51 53 -55 56 57 -60 -63 -64 67 68 -70 -72 73 -74 75 76 78 -81 -83 -85 86 87 -90 -92 -93 95 96 -97 0
x 1 2 -3 -6 8 9 10 13 -14 -16 17 -18 19 -20 -21 -22 28 -31 -38 -41 42 43 -44 45 46 48 -50 -54 -55 -56 -59 -64 -67 68 69 72 -73 74 -76 -79 -87 89 91 -94 95 96 97 -98 -100 0
x 2 -5 -7 9 10 -14 -16 -18 20 -21 -22 24 26 27 30 -32 -33 34 35 -37 38 -40 -44 45 -47 49 50 -53 54 55 57 58 -59 61 -62 65 -66 -68 -72 -74 -75 -77 -79 -81 82 83 84 87 89 -90 -94 -96 97 -98 -99 -100 0
x -1 5 8 9 10 11 -12 -13 -14 -15 16 -26 27 28 -29 -31 32 34 35 37 -41 43 -46 48 49 52 -54 55 57 -64 68 -69 -71 -72 -73 -74 -75 -76 -81 -83 85 -86 90 -91 -93 -95 -96 -97 99 100 0
x -1 5 -8 -15 -16 18 20 -22 24 -26 -28 31 32 -33 34 35 38 -40 43 -44 45 47 -48 50 52 -54 57 -58 -59 -60 61 62 -63 -66 -70 72 -73 74 75 -76 80 -83 84 -85 -86 -90 93 94 -95 -96 -100 0
x -1 -2 -5 6 7 -8 -13 14 -15 18 -19 -20 23 26 -27 28 31 32 -34 36 -38 42 -43 -45 47 -48 -51 -54 -55 -56 57 -59 60 63 -66 -67 -69 -70 -74 -75 79 -80 -81 -83 -84 -85 86 -87 -88 -89 91 93 100 0
x 1 3 4 6 -10 11 -14 -15 -19 20 22 -24 25 28 29 37 -38 -40 45 -49 -51 -52 55 -56 59 -63 -64 65 -66 -67 -68 -69 -70 -71 -73 76 -77 -81 -84 87 -89 -91 -92 98 -99 100 0
x 1 -2 -3 -6 7 9 11 13 -14 15 -17 23 26 27 -33 39 -40 42 43 44 -46 -48 49 50 -51 54 -56 58 -59 -61 -64 65 67 -69 -70 80 82 84 88 90 -92 -93 -94 95 -97 0
x 1 2 3 -8 -17 18 23 -25 26 28 30 -33 34 35 37 38 -39 40 42 -44 -48 -49 -51 55 58 -61 -62 64 -65 -67 -70 71 -72 -73 -74 77 78 -79 -80 -81 -82 -84 85 -87 -88 -90 92 94 98 100 0
x -1 2 -3 5 8 9 10 14 -16 -19 21 23 26 28 29 30 33 35 -36 37 38 -39 -40 42 -43 46 47 -50 -51 -52 -53 -61 63 -65 66 -69 -71 72 73 -75 -76 -77 78 82 83 84 -91 -93 95 -96 -97 98 -99 -100 0
x 2 4 5 -12 -13 -16 18 22 -23 -24 -26 28 -29 30 32 -38 -39 40 42 -43 44 45 47 -49 51 -52 -53 54 -55 -56 -57 59 -61 64 -65 -66 68 -69 70 71 -72 75 79 -81 84 90 91 -92 -93 -94 96 97 0
x 4 5 -7 9 -11 -13 16 -18 21 -24 26 28 -30 31 32 -35 -36 -37 -47 -48 51 -52 -54 -58 -60 -63 64 65 -66 67 -68 -69 70 71 -72 73 76 -77 -78 -79 -80 81 -83 -84 85 -86 -90 -91 93 -95 96 -97 -100 0
x -3 4 7 8 10 -11 13 17 19 20 21 28 31 33 -34 -36 37 38 39 -41 42 43 44 -45 -46 49 51 53 54 58 59 -60 62 -66 69 72 -73 75 77 -78 -79 81 -83 84 -85 -87 -90 -91 92 -93 -94 96 97 -98 99 100 0
x 3 -5 6 -9 -10 -12 14 -16 -18 -19 -21 25 26 -27 -28 -29 30 31 32 38 39 42 -46 52 53 -61 63 -64 65 -66 -68 69 70 -74 -76 77 78 79 81 -84 85 -88 -89 91 -92 93 94 0
x 1 -2 5 -8 -13 -14 -15 -18 20 -22 23 25 -26 -27 -29 31 -34 35 -36 38 -39 -44 -46 -47 -50 -52 53 56 60 62 -64 -65 66 -68 -69 70 71 74 76 -82 84 -87 -88 89 -90 -94 96 97 -98 99 0
x 3 5 15 16 -17 -18 -19 -22 28 -29 -31 -32 33 36 39 -43 -44 -47 48 49 -52 -54 55 -60 61 66 67 -72 -73 76 77 -78 80 -81 82 83 -84 -86 87 -89 -91 -93 -95 -97 98 100 0
x -1 -2 4 -9 -10 -11 -14 15 16 18 -21 -23 -25 28 -29 -30 31 33 -35 36 39 41 44 -46 -49 -54 -55 56 -59 -60 68 -69 70 71 -73 75 -76 -77 81 82 -84 -86 87 -88 -90 -95 96 99 100 0
x 2 5 -7 -8 10 11 -12 -16 17 -18 20 -21 -22 -23 25 -26 -27 -30 -32 -33 35 36 41 -44 50 -52 53 -56 -57 -60 61 -63 65 66 -68 -69 76 79 83 -85 86 -87 -88 -91 -99 100 0
x -1 -2 5 6 -9 -11 14 -18 -19 21 -23 26 27 -38 44 45 -46 49 51 -53 55 -58 60 61 -62 -64 -65 69 73 -74 75 80 -82 83 84 86 -91 93 94 96 100 0
x -1 -2 4 -5 -6 -9 -11 15 -20 -21 24 30 31 32 -33 35 36 -38 40 41 43 -44 -48 -49 -50 52 -53 60 -61 63 -64 65 68 -69 70 -71 -72 73 -74 75 77 79 -82 -83 -86 -87 -90 91 -92 -93 98 -99 0
x -2 -3 5 6 7 -12 -17 21 -22 24 29 -31 -36 37 -38 39 -40 -41 -42 -43 46 49 52 -58 -59 60 63 66 68 73 -74 75 76 -79 80 84 85 86 87 -92 95 96 -97 0
x -9 10 -11 -12 -13 17 18 -20 24 25 26 -29 -31 36 37 -39 41 42 -43 -47 52 53 -57 -58 60 -62 65 -68 -69 71 -72 73 -74 76 -80 -81 -82 -85 -90 -91 92 93 94 98 0
x 2 6 -7 -9 13 -16 17 20 -21 24 25 -28 31 33 34 -35 40 41 -43 45 -47 -48 49 -50 -51 54 -55 -57 -58 59 60 -62 63 64 -66 68 70 -71 -72 -74 75 -77 78 -79 80 -81 -82 84 85 -90 -92 93 96 97 100 0
x 3 -4 6 -7 -8 9 14 -17 -18 20 21 22 25 26 27 32 -39 -40 41 43 -45 46 47 48 -51 -52 56 59 65 -67 68 70 -73 -75 78 80 81 -84 85 -88 -92 -93 -95 -98 99 100 0
x 1 -2 -3 7 -9 10 -13 -14 -15 -16 -17 18 20 21 -24 -25 -28 -29 -33 -38 -39 40 -41 -45 52 53 -56 57 58 59 60 -61 -62 -63 -64 67 -69 71 -72 74 76 -78 79 -83 84 -85 -86 -87 90 91 -92 93 -96 -98 -99 -100 0
x -2 -3 -5 6 10 11 12 -16 -17 19 20 -23 24 -25 -27 -31 32 -37 38 39 -42 -47 -48 -49 50 51 -53 54 -55 -56 -57 -58 60 -61 -62 -64 -65 -66 -67 -69 -71 72 75 80 82 -83 85 86 -88 89 90 -92 -93 -94 95 -98 0
x -3 5 -6 8 9 11 -13 -15 -17 18 -25 -28 29 31 35 42 -44 -45 46 48 -52 -55 56 -60 -63 -67 69 73 75 -76 77 78 -80 -82 -83 85 87 -89 -90 92 93 -95 99 0
x -1 -7 -8 9 10 13 -15 17 18 -20 -21 22 -24 25 26 -28 -30 31 -33 35 -36 38 -39 40 -42 49 50 -51 -52 -55 -56 59 -60 61 64 66 -67 68 -71 -72 73 74 75 -76 77 -80 81 82 84 -89 -92 -95 96 97 99 100 0
x 1 5 7 -10 14 -15 -16 -23 -24 -26 28 30 -32 33 35 36 39 -40 44 51 52 54 55 -57 60 62 -64 -71 72 -73 74 75 76 78 -80 -81 83 84 89 -90 -91 -94 -97 -98 0
x -2 -3 5 7 8 -9 11 15 19 23 24 26 -27 28 -29 -33 35 -36 -37 42 -43 46 47 48 49 -54 58 -65 -66 67 68 69 71 72 -76 -77 -78 81 83 84 85 86 -88 93 94 99 -100 0
x -1 3 5 -7 -8 9 10 -12 14 16 17 18 19 -23 -25 -28 31 -32 -33 -35 36 -38 -40 48 53 -54 56 58 -62 65 -66 69 71 -72 -73 75 77 -80 81 -82 83 84 -88 92 93 -95 96 0
x -1 2 3 5 -6 -9 11 13 15 -19 21 -22 -23 27 -28 30 31 32 -33 -35 37 39 -40 41 -42 45 -48 51 -53 -56 -58 60 61 -62 -71 73 76 77 -78 82 84 88 92 93 99 100 0
x 4 -6 7 8 9 -12 -13 -14 -15 -16 -23 -24 -27 -28 29 -30 32 33 35 -36 -41 43 44 -45 -47 -48 -49 -51 52 -54 55 -56 -57 59 62 63 -65 -68 69 72 73 74 78 -80 81 -84 -85 87 89 -90 -91 -94 97 -100 0
x -1 2 4 -5 6 7 -8 11 14 -19 -20 23 -24 26 -27 -28 -32 33 35 -38 -41 -45 46 -48 -49 -50 51 -54 -55 57 -61 66 67 68 -69 -75 76 -77 -83 90 -93 94 -99 100 0
x -2 3 6 -9 10 -11 -12 -13 -14 -15 20 -21 22 -23 28 29 30 34 36 39 41 42 46 -48 49 54 -57 -60 -62 -66 67 -68 -69 71 -72 74 75 -78 80 82 83 -85 -88 -90 -92 -94 -95 -99 100 0
x 1 3 8 9 12 -13 14 16 -18 23 -24 25 26 27 28 -29 -31 33 -35 -36 40 -43 -46 -47 -48 49 50 -52 -56 57 -61 64 66 68 69 70 71 -72 73 -74 -75 -76 77 78 -81 91 -92 95 -96 0
x 2 -3 -5 7 -8 -10 -13 16 -17 19 -20 22 -25 -26 -28 -30 31 32 -33 36 -37 38 -39 -41 42 43 44 45 46 47 -48 51 -52 -53 -54 60 62 63 67 -68 -69 -70 -71 72 -73 74 -75 77 -83 84 -86 87 -88 89 91 92 97 98 -99 100 0
x -2 4 -6 7 -9 -11 -12 13 -14 16 17 18 -22 -23 -24 25 26 27 29 31 -32 -33 36 37 38 -42 -44 45 -46 48 -49 -50 51 -53 -55 -57 58 -61 -62 63 -64 -67 -68 -72 76 79 -80 81 82 -83 -84 88 -89 91 92 93 -95 97 98 -99 100 0
